(set-logic QF_S)
(declare-fun var0 () String)
(declare-fun var1 () String)
(declare-fun var2 () String)
(declare-fun var3 () String)
(declare-fun var4 () String)
(declare-fun var5 () String)
(declare-fun var6 () String)
(declare-fun var7 () String)
(declare-fun var8 () String)
(declare-fun var9 () String)
(declare-fun var10 () String)
(declare-fun var11 () String)
(declare-fun var12 () String)
(declare-fun var13 () String)
(declare-fun var14 () String)
(declare-fun var15 () String)
(declare-fun var16 () String)
(declare-fun var17 () String)
(declare-fun var18 () String)
(declare-fun var19 () String)
(declare-fun var20 () String)
(declare-fun var21 () String)
(declare-fun var22 () String)
(declare-fun var23 () String)
(declare-fun var24 () String)
(declare-fun var25 () String)
(declare-fun var26 () String)
(declare-fun var27 () String)
(declare-fun var28 () String)
(declare-fun var29 () String)
(declare-fun var30 () String)
(declare-fun var31 () String)
(declare-fun var32 () String)
(declare-fun var33 () String)
(declare-fun var34 () String)
(declare-fun var35 () String)
(declare-fun var36 () String)
(declare-fun var37 () String)
(declare-fun var38 () String)
(declare-fun var39 () String)
(declare-fun var40 () String)
(declare-fun var41 () String)
(declare-fun var42 () String)
(declare-fun var43 () String)
(declare-fun var44 () String)
(declare-fun var45 () String)
(declare-fun var46 () String)
(declare-fun var47 () String)
(declare-fun var48 () String)
(declare-fun var49 () String)
(declare-fun var50 () String)
(declare-fun var51 () String)
(declare-fun var52 () String)
(declare-fun var53 () String)
(declare-fun var54 () String)
(declare-fun var55 () String)
(declare-fun var56 () String)
(declare-fun var57 () String)
(declare-fun var58 () String)
(declare-fun var59 () String)
(declare-fun var60 () String)
(assert (= var0 (Concat var1 var2)))
(assert (= var2 (Concat var3 var4)))
(assert (= var4 (Concat var5 var6)))
(assert (= var6 (Concat var7 var8)))
(assert (= var8 (Concat var9 var10)))
(assert (= var10 (Concat var11 var12)))
(assert (= var12 (Concat var13 var14)))
(assert (= var14 (Concat var15 var16)))
(assert (= var16 (Concat var17 var18)))
(assert (= var18 (Concat var19 var20)))
(assert (= var20 (Concat var21 var22)))
(assert (= var22 (Concat var23 var24)))
(assert (= var24 (Concat var25 var26)))
(assert (= var26 (Concat var27 var28)))
(assert (= var28 (Concat var29 var30)))
(assert (= var30 (Concat var31 var32)))
(assert (= var32 (Concat var33 var34)))
(assert (= var34 (Concat var35 var36)))
(assert (= var36 (Concat var37 var38)))
(assert (= var38 (Concat var39 var40)))
(assert (= var40 (Concat var41 var42)))
(assert (= var42 (Concat var43 var44)))
(assert (= var44 (Concat var45 var46)))
(assert (= var46 (Concat var47 var48)))
(assert (= var48 (Concat var49 var50)))
(assert (= var50 (Concat var51 var52)))
(assert (= var52 (Concat var53 var54)))
(assert (= var54 (Concat var55 var56)))
(assert (= var56 (Concat var57 var58)))
(assert (= var58 (Concat var59 var60)))
(assert (= var0 "solution"))
(assert (= "H" (CharAt var54 467)))
(assert (= "p" (CharAt var59 136)))
(assert (= ")" (CharAt var56 588)))
(assert (= "n" (CharAt var31 718)))
(assert (= "A" (CharAt var47 71)))
(assert (= "@" (CharAt var1 299)))
(assert (= "\\" (CharAt var38 336)))
(assert (= "C" (CharAt var41 195)))
(assert (= "Y" (CharAt var21 652)))
(assert (= "5" (CharAt var22 338)))
(assert (= "a" (CharAt var48 732)))
(assert (= "X" (CharAt var18 487)))
(assert (= "k" (CharAt var10 85)))
(assert (= "\"" (CharAt var37 68)))
(assert (= "'" (CharAt var25 689)))
(assert (= "{" (CharAt var49 387)))
(assert (= "f" (CharAt var0 732)))
(assert (= "w" (CharAt var46 527)))
(assert (= "V" (CharAt var53 536)))
(assert (= "m" (CharAt var8 577)))
(assert (= "N" (CharAt var8 79)))
(assert (= "%" (CharAt var40 592)))
(assert (= "." (CharAt var40 648)))
(assert (= "%" (CharAt var9 59)))
(assert (= "W" (CharAt var2 432)))
(assert (= "V" (CharAt var41 472)))
(assert (= "q" (CharAt var9 63)))
(assert (= "b" (CharAt var32 267)))
(assert (= "|" (CharAt var29 888)))
(assert (= "6" (CharAt var57 989)))
(assert (= "y" (CharAt var23 371)))
(assert (= "@" (CharAt var22 451)))
(assert (= "'" (CharAt var20 203)))
(assert (= "@" (CharAt var16 916)))
(assert (= "S" (CharAt var10 28)))
(assert (= "/" (CharAt var33 905)))
(assert (= "T" (CharAt var32 146)))
(assert (= "{" (CharAt var6 430)))
(assert (= "d" (CharAt var25 169)))
(assert (= "{" (CharAt var60 224)))
(assert (= "p" (CharAt var41 896)))
(assert (= "\"" (CharAt var58 851)))
(assert (= ":" (CharAt var25 690)))
(assert (= "Q" (CharAt var16 435)))
(assert (= "l" (CharAt var17 36)))
(assert (= "_" (CharAt var41 905)))
(assert (= "2" (CharAt var20 11)))
(assert (= "H" (CharAt var10 810)))
(assert (= "+" (CharAt var23 541)))
(assert (= "u" (CharAt var47 113)))
(assert (= "w" (CharAt var54 92)))
(assert (= "\\" (CharAt var54 126)))
(assert (= "8" (CharAt var21 13)))
(assert (= "," (CharAt var0 935)))
(assert (= "j" (CharAt var29 758)))
(assert (= "8" (CharAt var58 721)))
(assert (= "(" (CharAt var7 321)))
(assert (= "~" (CharAt var22 943)))
(assert (= "(" (CharAt var11 736)))
(assert (= "@" (CharAt var0 864)))
(assert (= "I" (CharAt var1 981)))
(assert (= "c" (CharAt var37 444)))
(assert (= "b" (CharAt var52 281)))
(assert (= "B" (CharAt var60 93)))
(assert (= "&" (CharAt var39 338)))
(assert (= "-" (CharAt var54 98)))
(assert (= "0" (CharAt var53 509)))
(assert (= "m" (CharAt var24 989)))
(assert (= "!" (CharAt var18 608)))
(assert (= "`" (CharAt var55 392)))
(assert (= "V" (CharAt var50 718)))
(assert (= "d" (CharAt var8 469)))
(assert (= "@" (CharAt var10 459)))
(assert (= "I" (CharAt var2 547)))
(assert (= "2" (CharAt var24 651)))
(assert (= "(" (CharAt var31 817)))
(assert (= "<" (CharAt var30 270)))
(assert (= ":" (CharAt var23 400)))
(assert (= "s" (CharAt var51 172)))
(assert (= "M" (CharAt var38 695)))
(assert (= "R" (CharAt var11 83)))
(assert (= "S" (CharAt var1 518)))
(assert (= "M" (CharAt var4 791)))
(assert (= "C" (CharAt var45 658)))
(assert (= "j" (CharAt var60 27)))
(assert (= ";" (CharAt var27 742)))
(assert (= "h" (CharAt var36 245)))
(assert (= "w" (CharAt var18 250)))
(assert (= "`" (CharAt var22 557)))
(assert (= "5" (CharAt var31 329)))
(assert (= "'" (CharAt var18 244)))
(assert (= "a" (CharAt var5 698)))
(assert (= "`" (CharAt var9 122)))
(assert (= "-" (CharAt var2 845)))
(assert (= "Q" (CharAt var49 636)))
(assert (= "?" (CharAt var59 40)))
(assert (= "'" (CharAt var6 586)))
(assert (= ")" (CharAt var6 883)))
(assert (= "/" (CharAt var38 46)))
(assert (= "%" (CharAt var14 422)))
(assert (= "?" (CharAt var28 318)))
(assert (= "Q" (CharAt var7 173)))
(assert (= "7" (CharAt var10 816)))
(assert (= "_" (CharAt var29 121)))
(assert (= "r" (CharAt var28 205)))
(assert (= "g" (CharAt var52 557)))
(assert (= "P" (CharAt var57 525)))
(assert (= "u" (CharAt var43 984)))
(assert (= "J" (CharAt var36 602)))
(assert (= "/" (CharAt var12 376)))
(assert (= ")" (CharAt var40 909)))
(assert (= "z" (CharAt var32 265)))
(assert (= "v" (CharAt var54 359)))
(assert (= "C" (CharAt var56 858)))
(assert (= "O" (CharAt var50 311)))
(assert (= "t" (CharAt var13 640)))
(assert (= "x" (CharAt var37 708)))
(assert (= "7" (CharAt var15 106)))
(assert (= "Z" (CharAt var30 884)))
(assert (= "h" (CharAt var32 148)))
(assert (= "'" (CharAt var22 585)))
(assert (= "r" (CharAt var48 246)))
(assert (= "]" (CharAt var44 757)))
(assert (= "o" (CharAt var19 80)))
(assert (= "\"" (CharAt var22 984)))
(assert (= "\\" (CharAt var57 667)))
(assert (= "m" (CharAt var48 974)))
(assert (= "X" (CharAt var32 157)))
(assert (= "`" (CharAt var37 483)))
(assert (= "J" (CharAt var3 464)))
(assert (= "b" (CharAt var57 986)))
(assert (= "0" (CharAt var0 634)))
(assert (= "F" (CharAt var51 192)))
(assert (= "l" (CharAt var43 318)))
(assert (= "L" (CharAt var40 771)))
(assert (= "4" (CharAt var10 497)))
(assert (= "m" (CharAt var29 936)))
(assert (= "d" (CharAt var52 816)))
(assert (= "k" (CharAt var15 391)))
(assert (= "2" (CharAt var32 719)))
(assert (= "$" (CharAt var52 228)))
(assert (= "n" (CharAt var47 665)))
(assert (= "-" (CharAt var20 914)))
(assert (= "y" (CharAt var55 939)))
(assert (= "Y" (CharAt var59 782)))
(assert (= "5" (CharAt var59 927)))
(assert (= "A" (CharAt var3 363)))
(assert (= "r" (CharAt var24 881)))
(assert (= "0" (CharAt var32 86)))
(assert (= "`" (CharAt var37 723)))
(assert (= "-" (CharAt var21 912)))
(assert (= "-" (CharAt var12 694)))
(assert (= "u" (CharAt var53 877)))
(assert (= "1" (CharAt var60 329)))
(assert (= "<" (CharAt var22 246)))
(assert (= "J" (CharAt var48 772)))
(assert (= "1" (CharAt var34 984)))
(assert (= "*" (CharAt var20 960)))
(assert (= "=" (CharAt var9 923)))
(assert (= "W" (CharAt var48 421)))
(assert (= "%" (CharAt var52 304)))
(assert (= ")" (CharAt var38 629)))
(assert (= "_" (CharAt var30 793)))
(assert (= "_" (CharAt var24 399)))
(assert (= "-" (CharAt var7 844)))
(assert (= "P" (CharAt var41 145)))
(assert (= "q" (CharAt var3 700)))
(assert (= "H" (CharAt var24 853)))
(assert (= "C" (CharAt var51 525)))
(assert (= "B" (CharAt var53 520)))
(assert (= "B" (CharAt var31 264)))
(assert (= "m" (CharAt var22 407)))
(assert (= "g" (CharAt var49 190)))
(assert (= "z" (CharAt var29 712)))
(assert (= "!" (CharAt var58 799)))
(assert (= "_" (CharAt var19 475)))
(assert (= "u" (CharAt var10 587)))
(assert (= "8" (CharAt var52 483)))
(assert (= "&" (CharAt var18 990)))
(assert (= "q" (CharAt var29 158)))
(assert (= "h" (CharAt var34 179)))
(assert (= "m" (CharAt var30 304)))
(assert (= "J" (CharAt var7 769)))
(assert (= "t" (CharAt var36 16)))
(assert (= "q" (CharAt var17 869)))
(assert (= "u" (CharAt var0 966)))
(assert (= "a" (CharAt var21 805)))
(assert (= "o" (CharAt var27 941)))
(assert (= "@" (CharAt var9 327)))
(assert (= "6" (CharAt var53 822)))
(assert (= "V" (CharAt var9 465)))
(assert (= "k" (CharAt var46 329)))
(assert (= ")" (CharAt var22 799)))
(assert (= "d" (CharAt var46 169)))
(assert (= ":" (CharAt var27 467)))
(assert (= "1" (CharAt var53 193)))
(assert (= "P" (CharAt var24 69)))
(assert (= "," (CharAt var30 216)))
(assert (= "`" (CharAt var23 646)))
(assert (= "(" (CharAt var3 595)))
(assert (= "o" (CharAt var15 739)))
(assert (= "(" (CharAt var5 905)))
(assert (= ")" (CharAt var21 527)))
(assert (= "m" (CharAt var29 470)))
(assert (= "~" (CharAt var20 993)))
(assert (= "$" (CharAt var42 275)))
(assert (= "l" (CharAt var1 2)))
(assert (= "@" (CharAt var39 624)))
(assert (= "%" (CharAt var59 726)))
(assert (= "h" (CharAt var38 526)))
(assert (= "+" (CharAt var60 134)))
(assert (= "I" (CharAt var44 834)))
(assert (= "R" (CharAt var4 54)))
(assert (= "f" (CharAt var25 536)))
(assert (= "d" (CharAt var45 725)))
(assert (= "\"" (CharAt var21 409)))
(assert (= "r" (CharAt var59 536)))
(assert (= ";" (CharAt var8 740)))
(assert (= "]" (CharAt var30 978)))
(assert (= "1" (CharAt var29 203)))
(assert (= "i" (CharAt var6 191)))
(assert (= "q" (CharAt var2 278)))
(assert (= "S" (CharAt var35 600)))
(assert (= "l" (CharAt var3 569)))
(assert (= "*" (CharAt var57 253)))
(assert (= "y" (CharAt var16 148)))
(assert (= "Y" (CharAt var16 663)))
(assert (= "#" (CharAt var6 129)))
(assert (= "l" (CharAt var58 391)))
(assert (= "x" (CharAt var19 818)))
(assert (= "O" (CharAt var21 958)))
(assert (= "D" (CharAt var22 463)))
(assert (= "j" (CharAt var60 859)))
(assert (= "R" (CharAt var12 2)))
(assert (= "w" (CharAt var25 904)))
(assert (= "\\" (CharAt var7 372)))
(assert (= "h" (CharAt var28 595)))
(assert (= "%" (CharAt var41 64)))
(assert (= "6" (CharAt var3 811)))
(assert (= "n" (CharAt var60 990)))
(assert (= "N" (CharAt var15 377)))
(check-sat)